84 1606
1 3 4 5 7 8 10 11 12 22 23 24 25 28 29 33 36 38 48 49 50 51 54 55 56 58 59 60 62 65 68 72 77 78 79 80 82
0 4 5 11 12 15 16 18 19 21 22 23 30 32 35 38 39 42 45 46 47 52 53 56 58 59 61 62 64 67 71 75 77 78 79 82 83
6 7 9 12 13 15 16 17 18 20 25 27 28 32 35 36 40 42 43 45 46 47 48 51 53 54 55 56 64 70 74 80
0 6 10 12 13 14 15 25 30 31 33 34 35 37 38 40 41 44 46 48 50 51 52 53 55 56 57 63 64 70 72 74 75 76 78 79 80 83
0 1 6 14 20 23 28 29 31 32 35 36 39 41 45 46 49 53 54 58 60 62 63 70 72 76 77 78 79 80
0 1 8 11 12 13 15 16 18 28 29 32 33 34 35 36 37 39 42 45 46 50 51 53 57 58 60 62 63 64 67 68 70 72 73 75 77 80
2 3 4 9 11 12 13 14 18 20 22 23 25 27 32 33 34 37 39 40 41 42 44 50 51 52 56 59 60 61 62 63 67 68 71 74 78 79 80 83
0 2 8 9 11 14 15 17 19 21 23 24 25 27 29 31 32 37 39 42 46 48 49 53 56 59 61 63 65 66 67 69 70 73 75 77 78 80 83
0 5 7 9 14 15 17 18 20 25 27 28 30 33 35 36 37 39 40 43 44 45 47 49 51 52 53 54 55 61 62 65 67 70 78 79 80 83
2 6 7 8 14 15 20 22 25 27 30 31 32 33 40 41 43 48 51 53 55 58 59 60 64 66 72 74 75 77 78 80 81
0 3 12 15 16 17 22 24 27 28 29 31 32 33 36 39 41 43 44 46 49 52 53 54 57 58 60 62 64 66 72 75 82
0 1 5 6 7 13 14 15 17 18 21 26 28 29 30 31 34 35 39 40 42 44 46 54 55 56 57 58 60 61 62 67 70 73 76 78 81 82
0 1 2 3 5 6 10 13 14 16 20 21 23 24 26 27 32 33 34 36 37 40 41 45 49 51 52 54 56 57 59 62 63 67 71 74 75 76 78 80 81
2 3 5 6 11 12 17 19 21 22 23 26 27 28 29 30 35 36 38 42 43 46 55 59 60 61 63 66 67 71 73 75 76 77 79 83
3 4 6 7 8 9 11 12 16 17 19 20 22 23 25 26 28 31 33 34 35 36 37 38 39 40 41 43 44 46 49 50 51 52 56 57 59 60 63 64 66 70 73 77 79 81 82 83
1 2 3 5 7 8 9 10 11 16 17 19 22 24 29 30 32 33 34 37 38 41 44 49 50 56 57 58 64 65 66 69 70 72 75 76 77 80 81 83
1 2 5 10 12 14 15 19 21 22 23 25 31 32 33 37 39 46 47 48 51 54 57 59 61 66 69 70 73 74 77 78 79 82
2 7 8 10 11 13 14 15 19 21 26 27 30 31 33 39 40 41 44 47 48 49 53 56 58 59 60 61 63 66 69 70 71 79 80 81 83
1 2 5 6 8 11 20 21 23 24 26 30 31 32 34 38 41 42 43 47 50 53 54 55 59 60 64 67 68 72 73 78 80 83
1 7 13 14 15 16 17 21 23 25 28 29 30 31 33 36 37 40 42 45 49 52 53 55 62 64 65 69 70 71 72 74 76 78 79 81 83
2 4 6 8 9 12 14 18 21 22 24 29 30 32 33 34 35 38 40 41 43 44 46 47 54 56 57 58 61 62 64 67 68 69 70 72 73 75 77 79 80 81
1 7 11 12 13 16 17 18 19 20 22 25 27 28 29 35 36 42 44 46 47 49 56 58 59 62 63 67 68 70 72 73 75 77 79 82 83
0 1 6 9 10 13 14 15 16 20 21 24 30 32 33 35 37 38 40 41 43 44 48 50 51 52 53 54 55 57 59 60 63 64 65 67 68 74 77 78 80 83
0 1 4 6 7 12 13 14 16 18 19 25 29 31 33 39 47 52 55 57 58 60 62 63 64 66 67 69 70 71 72 74 76 77 78 81 82
0 7 10 12 15 18 20 22 28 31 32 33 35 36 38 39 40 41 44 47 49 52 53 55 56 57 58 59 66 67 69 70 71 75 80 82
0 2 3 6 7 8 9 14 16 19 21 23 26 27 32 33 34 35 39 42 45 46 49 50 51 56 64 66 67 68 71 72 75 77 78 81 82
11 12 13 14 17 18 25 29 30 31 35 36 37 38 43 48 49 51 52 56 57 59 62 64 66 68 69 72 74 77 78 79 81
2 6 7 8 9 10 12 13 17 21 25 29 30 35 36 37 38 40 41 42 43 56 58 62 63 65 66 67 71 72 73 74 75 76 78 79 81
0 2 4 5 8 10 11 13 14 19 21 24 37 38 40 42 43 44 46 48 49 50 55 56 57 60 61 63 64 65 66 67 68 69 71 72 73 75 77 81 82 83
0 4 5 7 10 11 13 15 19 20 21 23 26 27 31 33 42 44 46 48 49 55 56 58 60 61 62 63 66 67 70 76 78 79 81 83
1 3 8 9 11 13 15 17 18 19 20 22 26 27 31 34 36 38 45 46 47 48 49 51 53 55 57 58 59 67 68 71 73 74 76 82 83
3 4 7 9 10 11 14 16 17 18 19 23 24 26 29 30 32 35 37 42 46 47 49 50 51 52 53 56 57 62 63 68 71 73 74 75 77 78 79 81 83
1 2 4 5 6 7 9 10 12 15 16 18 20 22 24 25 31 34 37 43 47 49 51 53 56 59 60 64 66 69 70 74 75 77 78 81
0 3 5 6 8 9 10 12 14 15 16 17 19 20 22 23 24 25 29 34 35 36 37 39 40 41 42 46 48 49 50 52 55 56 57 58 59 63 65 66 71 72 73 75 76 77 79 81
3 5 6 11 12 14 15 18 20 25 30 32 33 38 40 41 42 43 49 52 53 56 57 59 60 61 63 64 65 67 68 70 72 74 75 76 77 79 80
1 2 3 4 5 8 11 13 14 20 21 22 24 25 26 27 31 33 36 37 38 39 40 46 47 50 54 55 56 57 59 60 61 62 63 64 65 67 68 69 70 72 74 75 81 82 83
0 2 4 5 8 10 12 13 14 19 21 24 26 27 30 33 35 40 41 43 44 47 48 55 61 63 65 66 67 72 82
3 5 6 7 8 12 14 15 16 19 22 26 27 28 31 32 33 35 38 39 42 45 46 47 48 49 52 56 59 60 61 62 67 68 70 71 72 73 74 76 77 78 79 80 82
0 1 3 13 14 15 18 20 22 24 26 27 28 30 34 35 37 40 42 47 50 51 53 58 60 63 65 67 70 72 75 76 77 80 81 82
1 4 5 6 7 8 10 11 14 16 17 23 24 25 33 35 37 40 41 45 49 56 57 59 63 64 68 70 72 74 76 79 82 83
2 3 6 8 9 11 12 14 17 19 20 22 24 27 28 33 34 35 36 38 39 41 42 45 47 49 50 51 54 55 58 59 60 65 68 71 73 78 79 82 83
3 4 6 9 10 12 14 15 17 18 20 22 24 27 33 34 36 39 40 42 45 47 48 50 51 52 54 56 59 61 64 67 70 75 77 79 80 83
1 2 5 6 7 11 13 18 19 21 25 27 28 29 31 33 34 37 38 40 41 43 44 45 52 54 56 58 59 60 61 64 70 71 72 73 76 77 78 80 81 83
2 8 9 10 13 14 18 20 22 26 27 28 32 34 36 42 44 47 48 49 51 52 58 60 62 63 64 68 69 70 72 73 77 79 80 83
3 6 8 10 11 14 15 17 20 21 22 24 28 29 36 42 43 45 46 47 48 50 51 52 54 55 56 60 61 62 64 70 77 81 83
1 2 4 5 8 12 19 25 30 37 39 40 41 42 44 46 49 53 56 60 62 63 67 68 69 70 71 74 75 76 77 80 83
1 2 3 4 5 7 10 11 13 14 16 20 21 25 28 29 30 31 33 35 37 44 45 47 50 55 57 58 59 60 67 68 69 72 73 76 78 82 83
1 2 8 16 17 18 20 21 23 24 30 31 32 35 36 37 38 40 41 43 44 46 48 50 53 54 57 58 59 61 62 63 66 67 69 71 73 75 76 77 78 79 80 82 83
0 2 3 7 9 16 17 22 26 28 29 30 33 36 37 41 43 44 47 50 52 53 55 56 58 59 63 66 69 73 75 78 80 82 83
0 4 7 8 10 12 14 15 17 19 21 24 25 26 28 29 30 31 32 33 34 37 39 40 43 45 53 57 62 63 66 67 68 69 70 71 74 75 76 77 81
0 3 5 6 14 15 18 22 25 28 31 33 35 38 40 41 44 46 47 48 51 54 55 60 64 67 68 70 74 76 77 79 82
0 2 3 5 6 8 9 12 14 16 22 25 26 30 31 32 38 40 41 43 44 50 53 54 58 59 60 62 63 66 68 70 74 75 77 81 82
1 3 6 8 10 12 14 19 22 23 24 26 31 33 34 37 41 42 43 44 48 53 56 57 58 59 60 62 63 64 69 70 76 79 80 82
1 2 3 4 5 7 8 9 10 17 18 19 22 24 30 31 32 34 38 45 47 48 49 51 52 55 58 59 60 61 63 65 66 69 70 71 73 76 77 83
0 2 4 8 10 11 12 16 18 20 22 35 40 41 42 44 47 50 51 55 56 60 66 67 68 69 70 75
0 2 3 8 9 11 13 18 19 22 23 24 28 29 30 33 35 36 40 44 46 48 50 53 54 56 57 58 59 61 63 67 68 69 70 71 73 74 76 78 79 80 82
0 1 2 3 6 7 11 12 14 15 17 20 21 24 25 26 27 28 29 31 32 33 34 35 37 39 41 42 44 45 48 52 54 55 58 59 60 62 66 67 68 74 76 77 78 81 82 83
3 5 10 11 12 14 15 16 20 22 23 24 26 28 30 31 33 34 35 39 46 47 49 52 55 63 66 69 71 74 75 76 81 82
0 1 4 5 9 10 11 15 17 20 21 23 24 27 29 30 33 38 40 42 43 46 47 48 51 52 53 55 56 60 61 64 65 68 70 74 82 83
0 1 6 7 9 12 13 14 16 17 18 21 22 24 26 30 32 33 34 35 37 39 40 41 42 46 47 48 51 52 53 55 56 63 65 67 68 74 76 80 81 82
0 4 5 6 9 10 11 13 14 17 18 22 23 28 29 32 34 35 37 38 40 42 43 44 45 46 50 51 52 53 54 56 58 61 63 67 68 70 71 73 76 82
1 6 7 8 11 13 16 17 20 28 29 34 35 36 37 41 42 44 47 53 55 58 60 63 64 66 67 70 72 73 74 75 77 78 80 81 83
0 1 4 5 6 8 10 11 12 19 20 21 23 26 27 29 31 35 37 43 44 45 47 49 51 52 56 64 65 66 67 72 73 74 75 78 80 81
3 4 5 6 7 12 13 14 17 21 22 23 27 28 29 31 33 34 35 36 38 39 43 45 47 48 49 51 52 53 55 57 59 60 61 65 66 68 69 70 72 74 75 79 80
1 2 3 5 9 10 14 15 18 19 20 22 23 25 26 28 32 34 35 39 41 42 43 44 50 52 58 61 62 65 68 69 72 73 74 77 79 81
0 7 8 15 19 22 27 28 33 34 35 36 38 40 53 58 59 62 63 64 66 71 72 73 74 77 79 81
7 9 10 13 14 15 16 17 23 24 25 26 27 28 29 32 33 36 47 48 49 51 53 54 56 57 61 62 63 65 69 72 74 75 77 78 79 81
1 5 6 7 8 11 12 13 18 20 21 22 23 24 25 27 28 29 30 34 35 36 37 38 41 45 46 47 49 50 54 55 56 59 60 61 62 69 70 71 72 74 78 80 81 82
0 5 6 18 20 21 22 25 26 28 30 31 34 35 37 39 40 43 45 46 49 50 51 54 55 56 58 59 60 63 64 70 71 73 74 75 76 80 83
7 15 16 17 19 20 23 24 26 28 32 35 43 45 46 47 48 49 52 53 54 55 57 63 64 66 67 70 72 73 76 77 79 80 82
2 3 4 5 7 8 11 14 15 16 17 19 20 21 23 24 29 32 34 35 37 38 39 41 42 43 44 45 49 50 51 52 53 54 55 58 60 61 63 67 68 69 71 74 75 77 80
1 6 12 13 17 19 23 24 25 27 28 30 31 33 37 40 42 45 47 49 53 55 57 60 65 67 68 70 72 73 78 79 81 83
0 3 4 5 9 10 15 18 19 20 21 23 25 26 27 28 33 34 35 36 37 38 39 42 43 46 61 62 63 64 65 66 67 69 71 73 75 76 77 79 81
5 7 11 13 14 16 18 20 21 27 28 30 31 33 37 40 42 43 46 47 48 53 55 60 61 62 64 65 68 69 71 72 78 81
2 3 6 9 12 16 19 22 23 26 27 30 31 32 34 35 37 39 45 49 50 51 55 56 57 58 59 61 62 63 64 65 66 67 68 70 75 79 81 82 83
1 3 5 7 9 10 12 13 15 20 21 24 25 27 28 31 32 33 34 35 38 41 45 47 48 49 51 54 57 61 62 63 66 68 70 72 74 77 83
3 4 11 12 13 15 19 23 27 29 30 33 34 37 38 39 42 45 46 47 49 50 52 53 55 56 57 59 60 68 69 72 77 78 79 81 82 83
0 1 4 5 7 9 13 14 15 16 20 21 22 23 25 26 28 31 32 33 34 37 38 41 42 43 44 45 47 49 50 51 53 56 61 64 65 66 69 70 72 75 76 79 80 81 83
0 1 3 4 6 7 8 9 11 12 16 18 19 22 23 25 26 27 29 31 32 37 40 42 46 47 48 55 56 61 62 66 67 71 73 76 83
0 1 3 4 6 8 13 14 16 17 19 20 21 26 27 29 31 33 34 37 39 40 41 43 47 50 52 55 63 64 65 66 69 71 72 74 76 77
0 2 3 4 5 6 7 8 9 12 15 17 18 20 22 24 34 37 38 41 42 43 45 47 48 52 55 59 61 62 63 67 68 69 70 77 81 82
9 11 12 14 15 17 19 20 23 25 26 27 28 29 31 32 33 35 38 42 44 49 51 56 57 59 61 62 64 65 66 67 71 72 73 74 76 77 80 82
0 1 10 11 14 16 21 23 24 25 28 30 35 36 37 38 39 40 46 47 48 50 51 52 55 56 57 58 59 60 67 69 74 76 80 81
1 3 6 7 8 13 14 15 17 18 19 21 22 28 29 30 31 35 39 40 41 42 43 44 45 46 47 48 53 56 58 61 68 71 74 75 76 77 78
